p cnf 265 1052
c p weight -9 1 0
c p weight 9 -1 0
c p weight 13 6.12323399573676603586882014729198302312846062338790031898128063403419218957424163818359375E-17 0
c p weight -13 1 0
c p weight 14 1 0
c p weight -14 1 0
c p weight -11 1 0
c p weight 11 -1 0
c p weight -15 1 0
c p weight 15 -1 0
c p weight -17 1 0
c p weight 17 -1 0
c p weight 21 6.12323399573676603586882014729198302312846062338790031898128063403419218957424163818359375E-17 0
c p weight -21 1 0
c p weight 22 1 0
c p weight -22 1 0
c p weight -19 1 0
c p weight 19 -1 0
c p weight -23 1 0
c p weight 23 -1 0
c p weight -25 1 0
c p weight 25 -1 0
c p weight 30 -0.00007372434514253458910475191867561761682736687362194061279296875 0
c p weight -30 1 0
c p weight 31 -0.99999999728236044216345135282608680427074432373046875 0
c p weight -31 1 0
c p weight -28 1 0
c p weight 28 -1 0
c p weight -32 1 0
c p weight 32 -1 0
c p weight -35 1 0
c p weight 35 -1 0
c p weight 39 6.12323399573676603586882014729198302312846062338790031898128063403419218957424163818359375E-17 0
c p weight -39 1 0
c p weight 40 1 0
c p weight -40 1 0
c p weight -37 1 0
c p weight 37 -1 0
c p weight -41 1 0
c p weight 41 -1 0
c p weight -43 1 0
c p weight 43 -1 0
c p weight 48 -0.00007372434514253458910475191867561761682736687362194061279296875 0
c p weight -48 1 0
c p weight 49 -0.99999999728236044216345135282608680427074432373046875 0
c p weight -49 1 0
c p weight -46 1 0
c p weight 46 -1 0
c p weight -50 1 0
c p weight 50 -1 0
c p weight -53 1 0
c p weight 53 -1 0
c p weight 57 6.12323399573676603586882014729198302312846062338790031898128063403419218957424163818359375E-17 0
c p weight -57 1 0
c p weight 58 1 0
c p weight -58 1 0
c p weight -55 1 0
c p weight 55 -1 0
c p weight 61 0.70734748011232539965931209735572338104248046875 0
c p weight -61 1 0
c p weight 62 -0.7068660002990265756039889311068691313266754150390625 0
c p weight -62 1 0
c p weight -59 1 0
c p weight 59 -1 0
c p weight 65 6.12323399573676603586882014729198302312846062338790031898128063403419218957424163818359375E-17 0
c p weight -65 1 0
c p weight 66 1 0
c p weight -66 1 0
c p weight -63 1 0
c p weight 63 -1 0
c p weight 69 3.0616169978683831411939265144290861071468186371292985459291458028019405901432037353515625E-16 0
c p weight -69 1 0
c p weight 70 1 0
c p weight -70 1 0
c p weight -67 1 0
c p weight 67 -1 0
c p weight -71 1 0
c p weight 71 -1 0
c p weight 75 6.12323399573676603586882014729198302312846062338790031898128063403419218957424163818359375E-17 0
c p weight -75 1 0
c p weight 76 1 0
c p weight -76 1 0
c p weight -73 1 0
c p weight 73 -1 0
c p weight -77 1 0
c p weight 77 -1 0
c p weight -79 1 0
c p weight 79 -1 0
c p weight 84 -0.00007372434514253458910475191867561761682736687362194061279296875 0
c p weight -84 1 0
c p weight 85 -0.99999999728236044216345135282608680427074432373046875 0
c p weight -85 1 0
c p weight -82 1 0
c p weight 82 -1 0
c p weight -86 1 0
c p weight 86 -1 0
c p weight -89 1 0
c p weight 89 -1 0
c p weight 93 6.12323399573676603586882014729198302312846062338790031898128063403419218957424163818359375E-17 0
c p weight -93 1 0
c p weight 94 1 0
c p weight -94 1 0
c p weight -91 1 0
c p weight 91 -1 0
c p weight 97 0.70734748011232539965931209735572338104248046875 0
c p weight -97 1 0
c p weight 98 -0.7068660002990265756039889311068691313266754150390625 0
c p weight -98 1 0
c p weight -95 1 0
c p weight 95 -1 0
c p weight 101 6.12323399573676603586882014729198302312846062338790031898128063403419218957424163818359375E-17 0
c p weight -101 1 0
c p weight 102 1 0
c p weight -102 1 0
c p weight -99 1 0
c p weight 99 -1 0
c p weight 105 3.0616169978683831411939265144290861071468186371292985459291458028019405901432037353515625E-16 0
c p weight -105 1 0
c p weight 106 1 0
c p weight -106 1 0
c p weight -103 1 0
c p weight 103 -1 0
c p weight -107 1 0
c p weight 107 -1 0
c p weight 112 0.70706413284293223586729482121882028877735137939453125 0
c p weight -112 1 0
c p weight 113 0.70714942695803151284650311936275102198123931884765625 0
c p weight -113 1 0
c p weight -110 1 0
c p weight 110 -1 0
c p weight -114 1 0
c p weight 114 -1 0
c p weight -117 1 0
c p weight 117 -1 0
c p weight 122 -0.00007372434514253458910475191867561761682736687362194061279296875 0
c p weight -122 1 0
c p weight 123 -0.99999999728236044216345135282608680427074432373046875 0
c p weight -123 1 0
c p weight -120 1 0
c p weight 120 -1 0
c p weight -124 1 0
c p weight 124 -1 0
c p weight -127 1 0
c p weight 127 -1 0
c p weight 131 6.12323399573676603586882014729198302312846062338790031898128063403419218957424163818359375E-17 0
c p weight -131 1 0
c p weight 132 1 0
c p weight -132 1 0
c p weight -129 1 0
c p weight 129 -1 0
c p weight 135 0.70734748011232539965931209735572338104248046875 0
c p weight -135 1 0
c p weight 136 -0.7068660002990265756039889311068691313266754150390625 0
c p weight -136 1 0
c p weight -133 1 0
c p weight 133 -1 0
c p weight 139 6.12323399573676603586882014729198302312846062338790031898128063403419218957424163818359375E-17 0
c p weight -139 1 0
c p weight 140 1 0
c p weight -140 1 0
c p weight -137 1 0
c p weight 137 -1 0
c p weight 143 3.0616169978683831411939265144290861071468186371292985459291458028019405901432037353515625E-16 0
c p weight -143 1 0
c p weight 144 1 0
c p weight -144 1 0
c p weight -141 1 0
c p weight 141 -1 0
c p weight -145 1 0
c p weight 145 -1 0
c p weight 150 0.70706413284293223586729482121882028877735137939453125 0
c p weight -150 1 0
c p weight 151 0.70714942695803151284650311936275102198123931884765625 0
c p weight -151 1 0
c p weight -148 1 0
c p weight 148 -1 0
c p weight -152 1 0
c p weight 152 -1 0
c p weight -155 1 0
c p weight 155 -1 0
c p weight 159 6.12323399573676603586882014729198302312846062338790031898128063403419218957424163818359375E-17 0
c p weight -159 1 0
c p weight 160 1 0
c p weight -160 1 0
c p weight -157 1 0
c p weight 157 -1 0
c p weight 163 0.00055937405874888841868231015297396879759617149829864501953125 0
c p weight -163 1 0
c p weight 164 0.9999998435503190119533201141166500747203826904296875 0
c p weight -164 1 0
c p weight -161 1 0
c p weight 161 -1 0
c p weight 167 6.12323399573676603586882014729198302312846062338790031898128063403419218957424163818359375E-17 0
c p weight -167 1 0
c p weight 168 1 0
c p weight -168 1 0
c p weight -165 1 0
c p weight 165 -1 0
c p weight 171 3.0616169978683831411939265144290861071468186371292985459291458028019405901432037353515625E-16 0
c p weight -171 1 0
c p weight 172 1 0
c p weight -172 1 0
c p weight -169 1 0
c p weight 169 -1 0
c p weight -173 1 0
c p weight 173 -1 0
c p weight 177 6.12323399573676603586882014729198302312846062338790031898128063403419218957424163818359375E-17 0
c p weight -177 1 0
c p weight 178 1 0
c p weight -178 1 0
c p weight -175 1 0
c p weight 175 -1 0
c p weight 181 0.70734748011232539965931209735572338104248046875 0
c p weight -181 1 0
c p weight 182 -0.7068660002990265756039889311068691313266754150390625 0
c p weight -182 1 0
c p weight -179 1 0
c p weight 179 -1 0
c p weight 185 6.12323399573676603586882014729198302312846062338790031898128063403419218957424163818359375E-17 0
c p weight -185 1 0
c p weight 186 1 0
c p weight -186 1 0
c p weight -183 1 0
c p weight 183 -1 0
c p weight 189 3.0616169978683831411939265144290861071468186371292985459291458028019405901432037353515625E-16 0
c p weight -189 1 0
c p weight 190 1 0
c p weight -190 1 0
c p weight -187 1 0
c p weight 187 -1 0
c p weight -191 1 0
c p weight 191 -1 0
c p weight 196 0.70706413284293223586729482121882028877735137939453125 0
c p weight -196 1 0
c p weight 197 0.70714942695803151284650311936275102198123931884765625 0
c p weight -197 1 0
c p weight -194 1 0
c p weight 194 -1 0
c p weight -198 1 0
c p weight 198 -1 0
c p weight -201 1 0
c p weight 201 -1 0
c p weight 205 6.12323399573676603586882014729198302312846062338790031898128063403419218957424163818359375E-17 0
c p weight -205 1 0
c p weight 206 1 0
c p weight -206 1 0
c p weight -203 1 0
c p weight 203 -1 0
c p weight 209 0.00055937405874888841868231015297396879759617149829864501953125 0
c p weight -209 1 0
c p weight 210 0.9999998435503190119533201141166500747203826904296875 0
c p weight -210 1 0
c p weight -207 1 0
c p weight 207 -1 0
c p weight 213 6.12323399573676603586882014729198302312846062338790031898128063403419218957424163818359375E-17 0
c p weight -213 1 0
c p weight 214 1 0
c p weight -214 1 0
c p weight -211 1 0
c p weight 211 -1 0
c p weight 217 3.0616169978683831411939265144290861071468186371292985459291458028019405901432037353515625E-16 0
c p weight -217 1 0
c p weight 218 1 0
c p weight -218 1 0
c p weight -215 1 0
c p weight 215 -1 0
c p weight -219 1 0
c p weight 219 -1 0
c p weight 224 0.70706413284293223586729482121882028877735137939453125 0
c p weight -224 1 0
c p weight 225 0.70714942695803151284650311936275102198123931884765625 0
c p weight -225 1 0
c p weight -222 1 0
c p weight 222 -1 0
c p weight -226 1 0
c p weight 226 -1 0
c p weight -229 1 0
c p weight 229 -1 0
c p weight 233 6.12323399573676603586882014729198302312846062338790031898128063403419218957424163818359375E-17 0
c p weight -233 1 0
c p weight 234 1 0
c p weight -234 1 0
c p weight -231 1 0
c p weight 231 -1 0
c p weight 237 0.00055937405874888841868231015297396879759617149829864501953125 0
c p weight -237 1 0
c p weight 238 0.9999998435503190119533201141166500747203826904296875 0
c p weight -238 1 0
c p weight -235 1 0
c p weight 235 -1 0
c p weight 241 6.12323399573676603586882014729198302312846062338790031898128063403419218957424163818359375E-17 0
c p weight -241 1 0
c p weight 242 1 0
c p weight -242 1 0
c p weight -239 1 0
c p weight 239 -1 0
c p weight 245 3.0616169978683831411939265144290861071468186371292985459291458028019405901432037353515625E-16 0
c p weight -245 1 0
c p weight 246 1 0
c p weight -246 1 0
c p weight -243 1 0
c p weight 243 -1 0
c p weight -247 1 0
c p weight 247 -1 0
c p weight 251 6.12323399573676603586882014729198302312846062338790031898128063403419218957424163818359375E-17 0
c p weight -251 1 0
c p weight 252 1 0
c p weight -252 1 0
c p weight -249 1 0
c p weight 249 -1 0
c p weight 255 0.00055937405874888841868231015297396879759617149829864501953125 0
c p weight -255 1 0
c p weight 256 0.9999998435503190119533201141166500747203826904296875 0
c p weight -256 1 0
c p weight -253 1 0
c p weight 253 -1 0
c p weight 259 6.12323399573676603586882014729198302312846062338790031898128063403419218957424163818359375E-17 0
c p weight -259 1 0
c p weight 260 1 0
c p weight -260 1 0
c p weight -257 1 0
c p weight 257 -1 0
c p weight 263 3.0616169978683831411939265144290861071468186371292985459291458028019405901432037353515625E-16 0
c p weight -263 1 0
c p weight 264 1 0
c p weight -264 1 0
c p weight -261 1 0
c p weight 261 -1 0
c p weight 265 0.5 0
c p weight -265 1 0
265 0
-7 0
-5 0
-3 0
-1 0
-9 1 0
-9 2 0
9 -1 -2 0
10 1 -2 0
10 -1 2 0
-10 1 2 0
-10 -1 -2 0
-11 12 0
-11 10 0
-11 -1 0
11 -12 1 -10 0
12 -1 10 0
-12 1 10 0
-13 10 0
12 -13 -1 0
-12 -13 1 0
12 13 1 -10 0
-12 13 -1 -10 0
-14 10 0
12 -14 1 0
-12 -14 -1 0
12 14 -1 -10 0
-12 14 1 -10 0
-15 12 0
-15 10 0
15 -12 -10 0
16 12 -10 0
16 -12 10 0
-16 12 10 0
-16 -12 -10 0
-17 3 0
-17 4 0
17 -3 -4 0
18 3 -4 0
18 -3 4 0
-18 3 4 0
-18 -3 -4 0
-19 20 0
-19 18 0
-19 -3 0
19 -20 3 -18 0
20 -3 18 0
-20 3 18 0
-21 18 0
20 -21 -3 0
-20 -21 3 0
20 21 3 -18 0
-20 21 -3 -18 0
-22 18 0
20 -22 3 0
-20 -22 -3 0
20 22 -3 -18 0
-20 22 3 -18 0
-23 20 0
-23 18 0
23 -20 -18 0
24 20 -18 0
24 -20 18 0
-24 20 18 0
-24 -20 -18 0
-25 12 0
-25 24 0
-25 20 -16 0
-25 -20 16 0
25 -12 20 16 -24 0
25 -12 -20 -16 -24 0
27 12 -20 0
27 -12 20 0
-27 12 20 0
-27 -12 -20 0
26 16 -24 0
26 -16 24 0
-26 16 24 0
-26 -16 -24 0
-28 27 0
-28 24 0
-28 -29 0
28 29 -27 -24 0
29 27 -24 0
-29 27 24 0
-30 27 0
29 -30 -24 0
-29 -30 24 0
29 30 -27 24 0
-29 30 -27 -24 0
-31 27 0
29 -31 24 0
-29 -31 -24 0
29 31 -27 -24 0
-29 31 -27 24 0
-32 12 0
-32 29 0
-32 27 -26 0
-32 -27 26 0
32 -12 27 26 -29 0
32 -12 -27 -26 -29 0
34 12 -27 0
34 -12 27 0
-34 12 27 0
-34 -12 -27 0
33 26 -29 0
33 -26 29 0
-33 26 29 0
-33 -26 -29 0
-35 5 0
-35 6 0
35 -5 -6 0
36 5 -6 0
36 -5 6 0
-36 5 6 0
-36 -5 -6 0
-37 38 0
-37 36 0
-37 -5 0
37 -38 5 -36 0
38 -5 36 0
-38 5 36 0
-39 36 0
38 -39 -5 0
-38 -39 5 0
38 39 5 -36 0
-38 39 -5 -36 0
-40 36 0
38 -40 5 0
-38 -40 -5 0
38 40 -5 -36 0
-38 40 5 -36 0
-41 38 0
-41 36 0
41 -38 -36 0
42 38 -36 0
42 -38 36 0
-42 38 36 0
-42 -38 -36 0
-43 12 0
-43 42 0
-43 38 -33 0
-43 -38 33 0
43 -12 38 33 -42 0
43 -12 -38 -33 -42 0
45 12 -38 0
45 -12 38 0
-45 12 38 0
-45 -12 -38 0
44 33 -42 0
44 -33 42 0
-44 33 42 0
-44 -33 -42 0
-46 45 0
-46 42 0
-46 -47 0
46 47 -45 -42 0
47 45 -42 0
-47 45 42 0
-48 45 0
47 -48 -42 0
-47 -48 42 0
47 48 -45 42 0
-47 48 -45 -42 0
-49 45 0
47 -49 42 0
-47 -49 -42 0
47 49 -45 -42 0
-47 49 -45 42 0
-50 12 0
-50 47 0
-50 45 -44 0
-50 -45 44 0
50 -12 45 44 -47 0
50 -12 -45 -44 -47 0
52 12 -45 0
52 -12 45 0
-52 12 45 0
-52 -12 -45 0
51 44 -47 0
51 -44 47 0
-51 44 47 0
-51 -44 -47 0
-53 12 0
-53 51 0
53 -12 -51 0
54 12 -51 0
54 -12 51 0
-54 12 51 0
-54 -12 -51 0
-55 56 0
-55 54 0
-55 -12 0
55 -56 12 -54 0
56 -12 54 0
-56 12 54 0
-57 54 0
56 -57 -12 0
-56 -57 12 0
56 57 12 -54 0
-56 57 -12 -54 0
-58 54 0
56 -58 12 0
-56 -58 -12 0
56 58 -12 -54 0
-56 58 12 -54 0
-59 56 0
-59 54 0
-59 -60 0
59 60 -56 -54 0
60 56 -54 0
-60 56 54 0
-61 56 0
60 -61 -54 0
-60 -61 54 0
60 61 -56 54 0
-60 61 -56 -54 0
-62 56 0
60 -62 54 0
-60 -62 -54 0
60 62 -56 -54 0
-60 62 -56 54 0
-63 64 0
-63 60 0
-63 -56 0
63 -64 56 -60 0
64 -56 60 0
-64 56 60 0
-65 60 0
64 -65 -56 0
-64 -65 56 0
64 65 56 -60 0
-64 65 -56 -60 0
-66 60 0
64 -66 56 0
-64 -66 -56 0
64 66 -56 -60 0
-64 66 56 -60 0
-67 64 0
-67 60 0
-67 -68 0
67 68 -64 -60 0
68 64 -60 0
-68 64 60 0
-69 64 0
68 -69 -60 0
-68 -69 60 0
68 69 -64 60 0
-68 69 -64 -60 0
-70 64 0
68 -70 60 0
-68 -70 -60 0
68 70 -64 -60 0
-68 70 -64 60 0
-71 7 0
-71 8 0
71 -7 -8 0
72 7 -8 0
72 -7 8 0
-72 7 8 0
-72 -7 -8 0
-73 74 0
-73 72 0
-73 -7 0
73 -74 7 -72 0
74 -7 72 0
-74 7 72 0
-75 72 0
74 -75 -7 0
-74 -75 7 0
74 75 7 -72 0
-74 75 -7 -72 0
-76 72 0
74 -76 7 0
-74 -76 -7 0
74 76 -7 -72 0
-74 76 7 -72 0
-77 74 0
-77 72 0
77 -74 -72 0
78 74 -72 0
78 -74 72 0
-78 74 72 0
-78 -74 -72 0
-79 34 0
-79 78 0
-79 74 -29 0
-79 -74 29 0
79 -34 74 29 -78 0
79 -34 -74 -29 -78 0
81 34 -74 0
81 -34 74 0
-81 34 74 0
-81 -34 -74 0
80 29 -78 0
80 -29 78 0
-80 29 78 0
-80 -29 -78 0
-82 81 0
-82 78 0
-82 -83 0
82 83 -81 -78 0
83 81 -78 0
-83 81 78 0
-84 81 0
83 -84 -78 0
-83 -84 78 0
83 84 -81 78 0
-83 84 -81 -78 0
-85 81 0
83 -85 78 0
-83 -85 -78 0
83 85 -81 -78 0
-83 85 -81 78 0
-86 34 0
-86 83 0
-86 81 -80 0
-86 -81 80 0
86 -34 81 80 -83 0
86 -34 -81 -80 -83 0
88 34 -81 0
88 -34 81 0
-88 34 81 0
-88 -34 -81 0
87 80 -83 0
87 -80 83 0
-87 80 83 0
-87 -80 -83 0
-89 34 0
-89 87 0
89 -34 -87 0
90 34 -87 0
90 -34 87 0
-90 34 87 0
-90 -34 -87 0
-91 92 0
-91 90 0
-91 -34 0
91 -92 34 -90 0
92 -34 90 0
-92 34 90 0
-93 90 0
92 -93 -34 0
-92 -93 34 0
92 93 34 -90 0
-92 93 -34 -90 0
-94 90 0
92 -94 34 0
-92 -94 -34 0
92 94 -34 -90 0
-92 94 34 -90 0
-95 92 0
-95 90 0
-95 -96 0
95 96 -92 -90 0
96 92 -90 0
-96 92 90 0
-97 92 0
96 -97 -90 0
-96 -97 90 0
96 97 -92 90 0
-96 97 -92 -90 0
-98 92 0
96 -98 90 0
-96 -98 -90 0
96 98 -92 -90 0
-96 98 -92 90 0
-99 100 0
-99 96 0
-99 -92 0
99 -100 92 -96 0
100 -92 96 0
-100 92 96 0
-101 96 0
100 -101 -92 0
-100 -101 92 0
100 101 92 -96 0
-100 101 -92 -96 0
-102 96 0
100 -102 92 0
-100 -102 -92 0
100 102 -92 -96 0
-100 102 92 -96 0
-103 100 0
-103 96 0
-103 -104 0
103 104 -100 -96 0
104 100 -96 0
-104 100 96 0
-105 100 0
104 -105 -96 0
-104 -105 96 0
104 105 -100 96 0
-104 105 -100 -96 0
-106 100 0
104 -106 96 0
-104 -106 -96 0
104 106 -100 -96 0
-104 106 -100 96 0
-107 64 0
-107 104 0
-107 100 -68 0
-107 -100 68 0
107 -64 100 68 -104 0
107 -64 -100 -68 -104 0
109 64 -100 0
109 -64 100 0
-109 64 100 0
-109 -64 -100 0
108 68 -104 0
108 -68 104 0
-108 68 104 0
-108 -68 -104 0
-110 109 0
-110 104 0
-110 -111 0
110 111 -109 -104 0
111 109 -104 0
-111 109 104 0
-112 109 0
111 -112 -104 0
-111 -112 104 0
111 112 -109 104 0
-111 112 -109 -104 0
-113 109 0
111 -113 104 0
-111 -113 -104 0
111 113 -109 -104 0
-111 113 -109 104 0
-114 64 0
-114 111 0
-114 109 -108 0
-114 -109 108 0
114 -64 109 108 -111 0
114 -64 -109 -108 -111 0
116 64 -109 0
116 -64 109 0
-116 64 109 0
-116 -64 -109 0
115 108 -111 0
115 -108 111 0
-115 108 111 0
-115 -108 -111 0
-117 52 0
-117 83 0
-117 88 -47 0
-117 -88 47 0
117 -52 88 47 -83 0
117 -52 -88 -47 -83 0
119 52 -88 0
119 -52 88 0
-119 52 88 0
-119 -52 -88 0
118 47 -83 0
118 -47 83 0
-118 47 83 0
-118 -47 -83 0
-120 119 0
-120 83 0
-120 -121 0
120 121 -119 -83 0
121 119 -83 0
-121 119 83 0
-122 119 0
121 -122 -83 0
-121 -122 83 0
121 122 -119 83 0
-121 122 -119 -83 0
-123 119 0
121 -123 83 0
-121 -123 -83 0
121 123 -119 -83 0
-121 123 -119 83 0
-124 52 0
-124 121 0
-124 119 -118 0
-124 -119 118 0
124 -52 119 118 -121 0
124 -52 -119 -118 -121 0
126 52 -119 0
126 -52 119 0
-126 52 119 0
-126 -52 -119 0
125 118 -121 0
125 -118 121 0
-125 118 121 0
-125 -118 -121 0
-127 52 0
-127 125 0
127 -52 -125 0
128 52 -125 0
128 -52 125 0
-128 52 125 0
-128 -52 -125 0
-129 130 0
-129 128 0
-129 -52 0
129 -130 52 -128 0
130 -52 128 0
-130 52 128 0
-131 128 0
130 -131 -52 0
-130 -131 52 0
130 131 52 -128 0
-130 131 -52 -128 0
-132 128 0
130 -132 52 0
-130 -132 -52 0
130 132 -52 -128 0
-130 132 52 -128 0
-133 130 0
-133 128 0
-133 -134 0
133 134 -130 -128 0
134 130 -128 0
-134 130 128 0
-135 130 0
134 -135 -128 0
-134 -135 128 0
134 135 -130 128 0
-134 135 -130 -128 0
-136 130 0
134 -136 128 0
-134 -136 -128 0
134 136 -130 -128 0
-134 136 -130 128 0
-137 138 0
-137 134 0
-137 -130 0
137 -138 130 -134 0
138 -130 134 0
-138 130 134 0
-139 134 0
138 -139 -130 0
-138 -139 130 0
138 139 130 -134 0
-138 139 -130 -134 0
-140 134 0
138 -140 130 0
-138 -140 -130 0
138 140 -130 -134 0
-138 140 130 -134 0
-141 138 0
-141 134 0
-141 -142 0
141 142 -138 -134 0
142 138 -134 0
-142 138 134 0
-143 138 0
142 -143 -134 0
-142 -143 134 0
142 143 -138 134 0
-142 143 -138 -134 0
-144 138 0
142 -144 134 0
-142 -144 -134 0
142 144 -138 -134 0
-142 144 -138 134 0
-145 64 0
-145 142 0
-145 138 -115 0
-145 -138 115 0
145 -64 138 115 -142 0
145 -64 -138 -115 -142 0
147 64 -138 0
147 -64 138 0
-147 64 138 0
-147 -64 -138 0
146 115 -142 0
146 -115 142 0
-146 115 142 0
-146 -115 -142 0
-148 147 0
-148 142 0
-148 -149 0
148 149 -147 -142 0
149 147 -142 0
-149 147 142 0
-150 147 0
149 -150 -142 0
-149 -150 142 0
149 150 -147 142 0
-149 150 -147 -142 0
-151 147 0
149 -151 142 0
-149 -151 -142 0
149 151 -147 -142 0
-149 151 -147 142 0
-152 64 0
-152 149 0
-152 147 -146 0
-152 -147 146 0
152 -64 147 146 -149 0
152 -64 -147 -146 -149 0
154 64 -147 0
154 -64 147 0
-154 64 147 0
-154 -64 -147 0
153 146 -149 0
153 -146 149 0
-153 146 149 0
-153 -146 -149 0
-155 64 0
-155 153 0
155 -64 -153 0
156 64 -153 0
156 -64 153 0
-156 64 153 0
-156 -64 -153 0
-157 158 0
-157 156 0
-157 -64 0
157 -158 64 -156 0
158 -64 156 0
-158 64 156 0
-159 156 0
158 -159 -64 0
-158 -159 64 0
158 159 64 -156 0
-158 159 -64 -156 0
-160 156 0
158 -160 64 0
-158 -160 -64 0
158 160 -64 -156 0
-158 160 64 -156 0
-161 158 0
-161 156 0
-161 -162 0
161 162 -158 -156 0
162 158 -156 0
-162 158 156 0
-163 158 0
162 -163 -156 0
-162 -163 156 0
162 163 -158 156 0
-162 163 -158 -156 0
-164 158 0
162 -164 156 0
-162 -164 -156 0
162 164 -158 -156 0
-162 164 -158 156 0
-165 166 0
-165 162 0
-165 -158 0
165 -166 158 -162 0
166 -158 162 0
-166 158 162 0
-167 162 0
166 -167 -158 0
-166 -167 158 0
166 167 158 -162 0
-166 167 -158 -162 0
-168 162 0
166 -168 158 0
-166 -168 -158 0
166 168 -158 -162 0
-166 168 158 -162 0
-169 166 0
-169 162 0
-169 -170 0
169 170 -166 -162 0
170 166 -162 0
-170 166 162 0
-171 166 0
170 -171 -162 0
-170 -171 162 0
170 171 -166 162 0
-170 171 -166 -162 0
-172 166 0
170 -172 162 0
-170 -172 -162 0
170 172 -166 -162 0
-170 172 -166 162 0
-173 126 0
-173 121 0
173 -126 -121 0
174 126 -121 0
174 -126 121 0
-174 126 121 0
-174 -126 -121 0
-175 176 0
-175 174 0
-175 -126 0
175 -176 126 -174 0
176 -126 174 0
-176 126 174 0
-177 174 0
176 -177 -126 0
-176 -177 126 0
176 177 126 -174 0
-176 177 -126 -174 0
-178 174 0
176 -178 126 0
-176 -178 -126 0
176 178 -126 -174 0
-176 178 126 -174 0
-179 176 0
-179 174 0
-179 -180 0
179 180 -176 -174 0
180 176 -174 0
-180 176 174 0
-181 176 0
180 -181 -174 0
-180 -181 174 0
180 181 -176 174 0
-180 181 -176 -174 0
-182 176 0
180 -182 174 0
-180 -182 -174 0
180 182 -176 -174 0
-180 182 -176 174 0
-183 184 0
-183 180 0
-183 -176 0
183 -184 176 -180 0
184 -176 180 0
-184 176 180 0
-185 180 0
184 -185 -176 0
-184 -185 176 0
184 185 176 -180 0
-184 185 -176 -180 0
-186 180 0
184 -186 176 0
-184 -186 -176 0
184 186 -176 -180 0
-184 186 176 -180 0
-187 184 0
-187 180 0
-187 -188 0
187 188 -184 -180 0
188 184 -180 0
-188 184 180 0
-189 184 0
188 -189 -180 0
-188 -189 180 0
188 189 -184 180 0
-188 189 -184 -180 0
-190 184 0
188 -190 180 0
-188 -190 -180 0
188 190 -184 -180 0
-188 190 -184 180 0
-191 116 0
-191 188 0
-191 184 -111 0
-191 -184 111 0
191 -116 184 111 -188 0
191 -116 -184 -111 -188 0
193 116 -184 0
193 -116 184 0
-193 116 184 0
-193 -116 -184 0
192 111 -188 0
192 -111 188 0
-192 111 188 0
-192 -111 -188 0
-194 193 0
-194 188 0
-194 -195 0
194 195 -193 -188 0
195 193 -188 0
-195 193 188 0
-196 193 0
195 -196 -188 0
-195 -196 188 0
195 196 -193 188 0
-195 196 -193 -188 0
-197 193 0
195 -197 188 0
-195 -197 -188 0
195 197 -193 -188 0
-195 197 -193 188 0
-198 116 0
-198 195 0
-198 193 -192 0
-198 -193 192 0
198 -116 193 192 -195 0
198 -116 -193 -192 -195 0
200 116 -193 0
200 -116 193 0
-200 116 193 0
-200 -116 -193 0
199 192 -195 0
199 -192 195 0
-199 192 195 0
-199 -192 -195 0
-201 116 0
-201 199 0
201 -116 -199 0
202 116 -199 0
202 -116 199 0
-202 116 199 0
-202 -116 -199 0
-203 204 0
-203 202 0
-203 -116 0
203 -204 116 -202 0
204 -116 202 0
-204 116 202 0
-205 202 0
204 -205 -116 0
-204 -205 116 0
204 205 116 -202 0
-204 205 -116 -202 0
-206 202 0
204 -206 116 0
-204 -206 -116 0
204 206 -116 -202 0
-204 206 116 -202 0
-207 204 0
-207 202 0
-207 -208 0
207 208 -204 -202 0
208 204 -202 0
-208 204 202 0
-209 204 0
208 -209 -202 0
-208 -209 202 0
208 209 -204 202 0
-208 209 -204 -202 0
-210 204 0
208 -210 202 0
-208 -210 -202 0
208 210 -204 -202 0
-208 210 -204 202 0
-211 212 0
-211 208 0
-211 -204 0
211 -212 204 -208 0
212 -204 208 0
-212 204 208 0
-213 208 0
212 -213 -204 0
-212 -213 204 0
212 213 204 -208 0
-212 213 -204 -208 0
-214 208 0
212 -214 204 0
-212 -214 -204 0
212 214 -204 -208 0
-212 214 204 -208 0
-215 212 0
-215 208 0
-215 -216 0
215 216 -212 -208 0
216 212 -208 0
-216 212 208 0
-217 212 0
216 -217 -208 0
-216 -217 208 0
216 217 -212 208 0
-216 217 -212 -208 0
-218 212 0
216 -218 208 0
-216 -218 -208 0
216 218 -212 -208 0
-216 218 -212 208 0
-219 154 0
-219 195 0
-219 200 -149 0
-219 -200 149 0
219 -154 200 149 -195 0
219 -154 -200 -149 -195 0
221 154 -200 0
221 -154 200 0
-221 154 200 0
-221 -154 -200 0
220 149 -195 0
220 -149 195 0
-220 149 195 0
-220 -149 -195 0
-222 221 0
-222 195 0
-222 -223 0
222 223 -221 -195 0
223 221 -195 0
-223 221 195 0
-224 221 0
223 -224 -195 0
-223 -224 195 0
223 224 -221 195 0
-223 224 -221 -195 0
-225 221 0
223 -225 195 0
-223 -225 -195 0
223 225 -221 -195 0
-223 225 -221 195 0
-226 154 0
-226 223 0
-226 221 -220 0
-226 -221 220 0
226 -154 221 220 -223 0
226 -154 -221 -220 -223 0
228 154 -221 0
228 -154 221 0
-228 154 221 0
-228 -154 -221 0
227 220 -223 0
227 -220 223 0
-227 220 223 0
-227 -220 -223 0
-229 154 0
-229 227 0
229 -154 -227 0
230 154 -227 0
230 -154 227 0
-230 154 227 0
-230 -154 -227 0
-231 232 0
-231 230 0
-231 -154 0
231 -232 154 -230 0
232 -154 230 0
-232 154 230 0
-233 230 0
232 -233 -154 0
-232 -233 154 0
232 233 154 -230 0
-232 233 -154 -230 0
-234 230 0
232 -234 154 0
-232 -234 -154 0
232 234 -154 -230 0
-232 234 154 -230 0
-235 232 0
-235 230 0
-235 -236 0
235 236 -232 -230 0
236 232 -230 0
-236 232 230 0
-237 232 0
236 -237 -230 0
-236 -237 230 0
236 237 -232 230 0
-236 237 -232 -230 0
-238 232 0
236 -238 230 0
-236 -238 -230 0
236 238 -232 -230 0
-236 238 -232 230 0
-239 240 0
-239 236 0
-239 -232 0
239 -240 232 -236 0
240 -232 236 0
-240 232 236 0
-241 236 0
240 -241 -232 0
-240 -241 232 0
240 241 232 -236 0
-240 241 -232 -236 0
-242 236 0
240 -242 232 0
-240 -242 -232 0
240 242 -232 -236 0
-240 242 232 -236 0
-243 240 0
-243 236 0
-243 -244 0
243 244 -240 -236 0
244 240 -236 0
-244 240 236 0
-245 240 0
244 -245 -236 0
-244 -245 236 0
244 245 -240 236 0
-244 245 -240 -236 0
-246 240 0
244 -246 236 0
-244 -246 -236 0
244 246 -240 -236 0
-244 246 -240 236 0
-247 228 0
-247 223 0
247 -228 -223 0
248 228 -223 0
248 -228 223 0
-248 228 223 0
-248 -228 -223 0
-249 250 0
-249 248 0
-249 -228 0
249 -250 228 -248 0
250 -228 248 0
-250 228 248 0
-251 248 0
250 -251 -228 0
-250 -251 228 0
250 251 228 -248 0
-250 251 -228 -248 0
-252 248 0
250 -252 228 0
-250 -252 -228 0
250 252 -228 -248 0
-250 252 228 -248 0
-253 250 0
-253 248 0
-253 -254 0
253 254 -250 -248 0
254 250 -248 0
-254 250 248 0
-255 250 0
254 -255 -248 0
-254 -255 248 0
254 255 -250 248 0
-254 255 -250 -248 0
-256 250 0
254 -256 248 0
-254 -256 -248 0
254 256 -250 -248 0
-254 256 -250 248 0
-257 258 0
-257 254 0
-257 -250 0
257 -258 250 -254 0
258 -250 254 0
-258 250 254 0
-259 254 0
258 -259 -250 0
-258 -259 250 0
258 259 250 -254 0
-258 259 -250 -254 0
-260 254 0
258 -260 250 0
-258 -260 -250 0
258 260 -250 -254 0
-258 260 250 -254 0
-261 258 0
-261 254 0
-261 -262 0
261 262 -258 -254 0
262 258 -254 0
-262 258 254 0
-263 258 0
262 -263 -254 0
-262 -263 254 0
262 263 -258 254 0
-262 263 -258 -254 0
-264 258 0
262 -264 254 0
-262 -264 -254 0
262 264 -258 -254 0
-262 264 -258 254 0
-166 0
-212 0
-216 0
-240 0
-244 0
-258 0
-262 0
